\ This file has been generated by Portfolio Optimizer
\ ENCODING=ISO-8859-1
\Problem name: Portfolio Optimization
Minimize
 obj: [ 90 portfolio_weight_0^2 + 55 portfolio_weight_1^2 + 79 portfolio_weight_2^2 + 51 portfolio_weight_3^2 + 62 portfolio_weight_4^2 + 82 portfolio_weight_5^2 + 66 portfolio_weight_6^2 + 75 portfolio_weight_7^2 + 54 portfolio_weight_8^2 + 85 portfolio_weight_9^2 + 53 portfolio_weight_10^2 + 96 portfolio_weight_11^2 + 85 portfolio_weight_12^2 + 52 portfolio_weight_13^2 + 87 portfolio_weight_14^2 + 88 portfolio_weight_15^2 + 77 portfolio_weight_16^2 + 97 portfolio_weight_17^2 + 58 portfolio_weight_18^2 + 65 portfolio_weight_19^2 + 58 portfolio_weight_20^2 + 98 portfolio_weight_21^2 + 88 portfolio_weight_22^2 + 72 portfolio_weight_23^2 + 70 portfolio_weight_24^2 + 81 portfolio_weight_25^2 + 66 portfolio_weight_26^2 + 84 portfolio_weight_27^2 + 71 portfolio_weight_28^2 + 65 portfolio_weight_29^2 + 78 portfolio_weight_30^2 + 66 portfolio_weight_31^2 + 62 portfolio_weight_32^2 + 63 portfolio_weight_33^2 + 69 portfolio_weight_34^2 + 75 portfolio_weight_35^2 + 76 portfolio_weight_36^2 + 78 portfolio_weight_37^2 + 83 portfolio_weight_38^2 + 52 portfolio_weight_39^2 + 93 portfolio_weight_40^2 + 79 portfolio_weight_41^2 + 84 portfolio_weight_42^2 + 85 portfolio_weight_43^2 + 50 portfolio_weight_44^2 + 78 portfolio_weight_45^2 + 96 portfolio_weight_46^2 + 87 portfolio_weight_47^2 + 81 portfolio_weight_48^2 + 66 portfolio_weight_49^2 + 52 portfolio_weight_50^2 + 58 portfolio_weight_51^2 + 69 portfolio_weight_52^2 + 94 portfolio_weight_53^2 + 54 portfolio_weight_54^2 + 74 portfolio_weight_55^2 + 100 portfolio_weight_56^2 + 71 portfolio_weight_57^2 + 84 portfolio_weight_58^2 + 97 portfolio_weight_59^2 + 77 portfolio_weight_60^2 + 76 portfolio_weight_61^2 + 54 portfolio_weight_62^2 + 77 portfolio_weight_63^2 + 82 portfolio_weight_64^2 + 82 portfolio_weight_65^2 + 88 portfolio_weight_66^2 + 75 portfolio_weight_67^2 + 59 portfolio_weight_68^2 + 93 portfolio_weight_69^2 + 71 portfolio_weight_70^2 + 59 portfolio_weight_71^2 + 85 portfolio_weight_72^2 + 94 portfolio_weight_73^2 + 86 portfolio_weight_74^2 + 60 portfolio_weight_75^2 + 84 portfolio_weight_76^2 + 63 portfolio_weight_77^2 + 90 portfolio_weight_78^2 + 78 portfolio_weight_79^2 + 89 portfolio_weight_80^2 + 51 portfolio_weight_81^2 + 95 portfolio_weight_82^2 + 58 portfolio_weight_83^2 + 50 portfolio_weight_84^2 + 63 portfolio_weight_85^2 + 57 portfolio_weight_86^2 + 65 portfolio_weight_87^2 + 65 portfolio_weight_88^2 + 52 portfolio_weight_89^2 + 74 portfolio_weight_90^2 + 76 portfolio_weight_91^2 + 84 portfolio_weight_92^2 + 75 portfolio_weight_93^2 + 67 portfolio_weight_94^2 + 59 portfolio_weight_95^2 + 98 portfolio_weight_96^2 + 75 portfolio_weight_97^2 + 90 portfolio_weight_98^2 + 63 portfolio_weight_99^2 + 82 portfolio_weight_100^2 + 97 portfolio_weight_101^2 + 92 portfolio_weight_102^2 + 70 portfolio_weight_103^2 + 58 portfolio_weight_104^2 + 63 portfolio_weight_105^2 + 63 portfolio_weight_106^2 + 99 portfolio_weight_107^2 + 56 portfolio_weight_108^2 ]/2
Subject To
 budget: portfolio_weight_0 + portfolio_weight_1 + portfolio_weight_2 + portfolio_weight_3 + portfolio_weight_4 + portfolio_weight_5 + portfolio_weight_6 + portfolio_weight_7 + portfolio_weight_8 + portfolio_weight_9 + portfolio_weight_10 + portfolio_weight_11 + portfolio_weight_12 + portfolio_weight_13 + portfolio_weight_14 + portfolio_weight_15 + portfolio_weight_16 + portfolio_weight_17 + portfolio_weight_18 + portfolio_weight_19 + portfolio_weight_20 + portfolio_weight_21 + portfolio_weight_22 + portfolio_weight_23 + portfolio_weight_24 + portfolio_weight_25 + portfolio_weight_26 + portfolio_weight_27 + portfolio_weight_28 + portfolio_weight_29 + portfolio_weight_30 + portfolio_weight_31 + portfolio_weight_32 + portfolio_weight_33 + portfolio_weight_34 + portfolio_weight_35 + portfolio_weight_36 + portfolio_weight_37 + portfolio_weight_38 + portfolio_weight_39 + portfolio_weight_40 + portfolio_weight_41 + portfolio_weight_42 + portfolio_weight_43 + portfolio_weight_44 + portfolio_weight_45 + portfolio_weight_46 + portfolio_weight_47 + portfolio_weight_48 + portfolio_weight_49 + portfolio_weight_50 + portfolio_weight_51 + portfolio_weight_52 + portfolio_weight_53 + portfolio_weight_54 + portfolio_weight_55 + portfolio_weight_56 + portfolio_weight_57 + portfolio_weight_58 + portfolio_weight_59 + portfolio_weight_60 + portfolio_weight_61 + portfolio_weight_62 + portfolio_weight_63 + portfolio_weight_64 + portfolio_weight_65 + portfolio_weight_66 + portfolio_weight_67 + portfolio_weight_68 + portfolio_weight_69 + portfolio_weight_70 + portfolio_weight_71 + portfolio_weight_72 + portfolio_weight_73 + portfolio_weight_74 + portfolio_weight_75 + portfolio_weight_76 + portfolio_weight_77 + portfolio_weight_78 + portfolio_weight_79 + portfolio_weight_80 + portfolio_weight_81 + portfolio_weight_82 + portfolio_weight_83 + portfolio_weight_84 + portfolio_weight_85 + portfolio_weight_86 + portfolio_weight_87 + portfolio_weight_88 + portfolio_weight_89 + portfolio_weight_90 + portfolio_weight_91 + portfolio_weight_92 + portfolio_weight_93 + portfolio_weight_94 + portfolio_weight_95 + portfolio_weight_96 + portfolio_weight_97 + portfolio_weight_98 + portfolio_weight_99 + portfolio_weight_100 + portfolio_weight_101 + portfolio_weight_102 + portfolio_weight_103 + portfolio_weight_104 + portfolio_weight_105 + portfolio_weight_106 + portfolio_weight_107 + portfolio_weight_108 = 1
 sector_Consumer: portfolio_weight_11 + portfolio_weight_26 + portfolio_weight_35 + portfolio_weight_57 + portfolio_weight_64 + portfolio_weight_65 + portfolio_weight_68 + portfolio_weight_75 + portfolio_weight_76 + portfolio_weight_78 + portfolio_weight_93 + portfolio_weight_94 + portfolio_weight_99 <= 0.3
 sector_Financials: portfolio_weight_10 + portfolio_weight_21 + portfolio_weight_27 + portfolio_weight_34 + portfolio_weight_46 + portfolio_weight_56 + portfolio_weight_66 + portfolio_weight_67 + portfolio_weight_72 + portfolio_weight_73 + portfolio_weight_87 + portfolio_weight_88 + portfolio_weight_92 + portfolio_weight_103 + portfolio_weight_106
 constraint_0: <= 0.3
 sector_Utilities: portfolio_weight_3 + portfolio_weight_17 + portfolio_weight_51 + portfolio_weight_85 <= 0.3
 sector_Healthcare: portfolio_weight_7 + portfolio_weight_8 + portfolio_weight_12 + portfolio_weight_13 + portfolio_weight_16 + portfolio_weight_19 + portfolio_weight_20 + portfolio_weight_25 + portfolio_weight_53 + portfolio_weight_60 + portfolio_weight_80 + portfolio_weight_84 + portfolio_weight_96 + portfolio_weight_104 <= 0.3
 sector_Materials: portfolio_weight_14 + portfolio_weight_23 + portfolio_weight_29 + portfolio_weight_31 + portfolio_weight_32 + portfolio_weight_74 + portfolio_weight_100 + portfolio_weight_101 + portfolio_weight_102 + portfolio_weight_108 <= 0.3
 sector_Technology: portfolio_weight_0 + portfolio_weight_1 + portfolio_weight_6 + portfolio_weight_9 + portfolio_weight_24 + portfolio_weight_28 + portfolio_weight_36 + portfolio_weight_38 + portfolio_weight_40 + portfolio_weight_41 + portfolio_weight_42 + portfolio_weight_43 + portfolio_weight_47 + portfolio_weight_48 + portfolio_weight_49 + portfolio_weight_50 + portfolio_weight_52 + portfolio_weight_54 + portfolio_weight_55 + portfolio_weight_58 + portfolio_weight_59 + portfolio_weight_61 + portfolio_weight_62 + portfolio_weight_71 + portfolio_weight_77 + portfolio_weight_79 + portfolio_weight_81 + portfolio_weight_83 + portfolio_weight_86 + portfolio_weight_89 + portfolio_weight_91 + portfolio_weight_97 + portfolio_weight_107 <= 0.3
 sector_Real_Estate: portfolio_weight_18 + portfolio_weight_22 + portfolio_weight_63 <= 0.3
 sector_Industrials: portfolio_weight_2 + portfolio_weight_5 + portfolio_weight_30 + portfolio_weight_37 + portfolio_weight_39 + portfolio_weight_44 + portfolio_weight_45 + portfolio_weight_69 + portfolio_weight_70 + portfolio_weight_82 + portfolio_weight_95 + portfolio_weight_98 <= 0.3
 sector_Energy: portfolio_weight_4 + portfolio_weight_15 + portfolio_weight_33 + portfolio_weight_90 + portfolio_weight_105 <= 0.3
Bounds
 w[0] <= 1
 w[1] <= 1
 w[2] <= 1
 w[3] <= 1
 w[4] <= 1
 w[5] <= 1
 w[6] <= 1
 w[7] <= 1
 w[8] <= 1
 w[9] <= 1
 w[10] <= 1
 w[11] <= 1
 w[12] <= 1
 w[13] <= 1
 w[14] <= 1
 w[15] <= 1
 w[16] <= 1
 w[17] <= 1
 w[18] <= 1
 w[19] <= 1
 w[20] <= 1
 w[21] <= 1
 w[22] <= 1
 w[23] <= 1
 w[24] <= 1
 w[25] <= 1
 w[26] <= 1
 w[27] <= 1
 w[28] <= 1
 w[29] <= 1
 w[30] <= 1
 w[31] <= 1
 w[32] <= 1
 w[33] <= 1
 w[34] <= 1
 w[35] <= 1
 w[36] <= 1
 w[37] <= 1
 w[38] <= 1
 w[39] <= 1
 w[40] <= 1
 w[41] <= 1
 w[42] <= 1
 w[43] <= 1
 w[44] <= 1
 w[45] <= 1
 w[46] <= 1
 w[47] <= 1
 w[48] <= 1
 w[49] <= 1
 w[50] <= 1
 w[51] <= 1
 w[52] <= 1
 w[53] <= 1
 w[54] <= 1
 w[55] <= 1
 w[56] <= 1
 w[57] <= 1
 w[58] <= 1
 w[59] <= 1
 w[60] <= 1
 w[61] <= 1
 w[62] <= 1
 w[63] <= 1
 w[64] <= 1
 w[65] <= 1
 w[66] <= 1
 w[67] <= 1
 w[68] <= 1
 w[69] <= 1
 w[70] <= 1
 w[71] <= 1
 w[72] <= 1
 w[73] <= 1
 w[74] <= 1
 w[75] <= 1
 w[76] <= 1
 w[77] <= 1
 w[78] <= 1
 w[79] <= 1
 w[80] <= 1
 w[81] <= 1
 w[82] <= 1
 w[83] <= 1
 w[84] <= 1
 w[85] <= 1
 w[86] <= 1
 w[87] <= 1
 w[88] <= 1
 w[89] <= 1
 w[90] <= 1
 w[91] <= 1
 w[92] <= 1
 w[93] <= 1
 w[94] <= 1
 w[95] <= 1
 w[96] <= 1
 w[97] <= 1
 w[98] <= 1
 w[99] <= 1
 w[100] <= 1
 w[101] <= 1
 w[102] <= 1
 w[103] <= 1
 w[104] <= 1
 w[105] <= 1
 w[106] <= 1
 w[107] <= 1
 w[108] <= 1
End